n_machines = 2;
n_resources = 4;
n_jobs = 40;
horizon = 207;
LB = 103;
n_jobs_per_resource = [10, 10, 10, 10];
duration = [8, 8, 4, 6, 8, 6, 6, 2, 9, 1, 2, 8, 7, 8, 4, 1, 8, 8, 2, 2, 2, 8, 1, 3, 7, 3, 3, 6, 5, 9, 2, 5, 9, 2, 4, 7, 5, 7, 5, 6]